NAME : A-n80-k10
COMMENT : (Augerat et al, Min no of trucks: 10, Best value: 1764)
TYPE : CVRP
DIMENSION : 80
EDGE_WEIGHT_TYPE : EUC_2D 
CAPACITY : 100
NODE_COORD_SECTION 
 1 92 92
 2 88 58
 3 70 6
 4 57 59
 5 0 98
 6 61 38
 7 65 22
 8 91 52
 9 59 2
 10 33 54
 11 95 38
 12 85 28
 13 65 42
 14 76 74
 15 91 25
 16 50 43
 17 43 3
 18 53 42
 19 92 0
 20 11 19
 21 46 21
 22 110 61
 23 21 85
 24 99 35
 25 49 22
 26 29 25
 27 74 94
 28 30 43
 29 82 47
 30 57 44
 31 60 25
 32 48 42
 33 17 93
 34 21 50
 35 77 18
 36 2 4
 37 63 83
 38 68 6
 39 41 95
 40 42 54
 41 92 73
 42 12 38
 43 61 26
 44 40 14
 45 65 11
 46 14 26
 47 32 39
 48 44 24
 49 91 5
 50 82 18
 51 23 55
 52 63 39
 53 87 29
 54 56 15
 55 15 23
 56 12 55
 57 12 30
 58 32 11
 59 32 93
 60 51 31
 61 42 12
 62 39 40
 63 72 20
 64 83 24
 65 33 12
 66 0 34
 67 52 42
 68 12 42
 69 46 23
 70 3 22
 71 46 30
 72 92 30
 73 22 36
 74 72 32
 75 51 21
 76 34 11
 77 28 20
 78 59 16
 79 56 14
 80 90 12
 81 92 92
 82 92 92
 83 92 92
 84 92 92
 85 92 92
 86 92 92
 87 92 92
 88 92 92
 89 92 92
DEMAND_SECTION 
1 0 
2 24 
3 22 
4 23 
5 5 
6 11 
7 23 
8 26 
9 9 
10 23 
11 9 
12 14 
13 16 
14 12 
15 2 
16 2 
17 6 
18 20 
19 26 
20 12 
21 15 
22 13 
23 26 
24 17 
25 7 
26 12 
27 4 
28 4 
29 20 
30 10 
31 9 
32 2 
33 9 
34 1 
35 2 
36 2 
37 12 
38 14 
39 23 
40 21 
41 13 
42 13 
43 23 
44 3 
45 6 
46 23 
47 11 
48 2 
49 7 
50 13 
51 10 
52 3 
53 6 
54 13 
55 2 
56 14 
57 7 
58 21 
59 7 
60 22 
61 13 
62 22 
63 18 
64 22 
65 6 
66 2 
67 11 
68 5 
69 9 
70 9 
71 5 
72 12 
73 2 
74 12 
75 19 
76 6 
77 14 
78 2 
79 2 
80 24 
81 0 
82 0 
83 0 
84 0 
85 0 
86 0 
87 0 
88 0 
89 0 
DEPOT_SECTION 
 1  
 -1  
EOF 
